$ http://www.survo.fi/puzzles/280708.txt, third puzzle
$ Survo puzzle 128/2008 (1700) #364-35846
$
$    A  B  C  D  E  F
$ 1  *  *  *  *  *  * 30
$ 2  *  * 18  *  *  * 86
$ 3  *  *  *  *  *  * 55
$   22 11 42 32 27 37
language ESSENCE' 1.0
letting r be 3
letting c be 6
letting rowsums be [30, 86, 55]
letting colsums be [22, 11, 42, 32, 27, 37]
letting game be
   [
     [0, 0,  0, 0, 0, 0],
     [0, 0, 18, 0, 0, 0],
     [0, 0,  0, 0, 0, 0]
   ]
